(set-logic FO)
(set-info :status unsat)
(declare-fun q (Term Term) Bool)
(declare-fun f (Term Term) Bool)
(assert (forall ((x Term) (y Term)) (<=> (q x y) (forall ((z Term)) (<=> (f z x) (f z y))))))
(assert (not (forall ((x Term) (y Term)) (<=> (q x y) (q y x)))))
(check-sat)
(exit)
